
Gurobi 11.0.3 (mac64[arm], gurobi_cl) logging started Mon Nov  4 10:58:49 2024

Set parameter TimeLimit to value 600
Set parameter NoRelHeurTime to value 600
Set parameter LogFile to value "gurobi.log"
Using license file /Users/sakai/gurobi.lic
Restricted license - for non-production use only - expires 2025-11-24

Gurobi Optimizer version 11.0.3 build v11.0.3rc0 (mac64[arm] - Darwin 22.6.0 22H123)
Copyright (c) 2024, Gurobi Optimization, LLC

Read LP format model from file ../../../miplib2024_submission/instances.20241102/bnn_mnist_rot_16_label5_adversarial_norm_1.lp
Reading time = 0.09 seconds
: 1104 rows, 1295 columns, 398390 nonzeros

CPU model: Apple M1
Thread count: 8 physical cores, 8 logical processors, using up to 8 threads

Optimize a model with 1104 rows, 1295 columns and 398390 nonzeros
Model fingerprint: 0x1a5a6739
Variable types: 1 continuous, 1294 integer (1294 binary)
Coefficient statistics:
  Matrix range     [1e+00, 2e+03]
  Objective range  [1e+00, 2e+04]
  Bounds range     [1e+00, 1e+00]
  RHS range        [1e+00, 2e+03]
Presolve removed 32 rows and 19 columns
Presolve time: 0.97s
Presolved: 1072 rows, 1276 columns, 392008 nonzeros
Variable types: 0 continuous, 1276 integer (1276 binary)
Starting NoRel heuristic
Found phase-1 solution: relaxation 553
Found phase-1 solution: relaxation 550
Found phase-1 solution: relaxation 549
Found phase-1 solution: relaxation 520
Found phase-1 solution: relaxation 478
Found phase-1 solution: relaxation 472
Found phase-1 solution: relaxation 417
Found phase-1 solution: relaxation 300
Found phase-1 solution: relaxation 292
Found phase-1 solution: relaxation 187
Found phase-1 solution: relaxation 183
Found phase-1 solution: relaxation 180
Found phase-1 solution: relaxation 137
Found phase-1 solution: relaxation 129
Found phase-1 solution: relaxation 123
Found phase-1 solution: relaxation 120
Found phase-1 solution: relaxation 115
Found phase-1 solution: relaxation 113
Found phase-1 solution: relaxation 112
Found phase-1 solution: relaxation 94
Found phase-1 solution: relaxation 53
Elapsed time for NoRel heuristic: 5s (best bound 0)
Found phase-1 solution: relaxation 27
Found phase-1 solution: relaxation 13
Found phase-1 solution: relaxation 0
Found heuristic solution: objective 11128.000000
Transition to phase 2
Found heuristic solution: objective 9328.0000000
Found heuristic solution: objective 9125.0000000
Found heuristic solution: objective 8722.0000000
Found heuristic solution: objective 7785.0000000
Found heuristic solution: objective 6908.0000000
Elapsed time for NoRel heuristic: 11s (best bound 0)
Found heuristic solution: objective 6704.0000000
Found heuristic solution: objective 6386.0000000
Found heuristic solution: objective 5873.0000000
Found heuristic solution: objective 5761.0000000
Found heuristic solution: objective 5311.0000000
Found heuristic solution: objective 5304.0000000
Found heuristic solution: objective 5276.0000000
Elapsed time for NoRel heuristic: 18s (best bound 0)
Found heuristic solution: objective 5108.0000000
Found heuristic solution: objective 5001.0000000
Found heuristic solution: objective 4788.0000000
Found heuristic solution: objective 4693.0000000
Found heuristic solution: objective 4460.0000000
Elapsed time for NoRel heuristic: 25s (best bound 0)
Found heuristic solution: objective 4458.0000000
Found heuristic solution: objective 4384.0000000
Found heuristic solution: objective 4370.0000000
Found heuristic solution: objective 4152.0000000
Elapsed time for NoRel heuristic: 30s (best bound 0)
Found heuristic solution: objective 4151.0000000
Found heuristic solution: objective 4096.0000000
Found heuristic solution: objective 4012.0000000
Found heuristic solution: objective 3829.0000000
Elapsed time for NoRel heuristic: 37s (best bound 0)
Found heuristic solution: objective 3827.0000000
Found heuristic solution: objective 3692.0000000
Elapsed time for NoRel heuristic: 44s (best bound 0)
Found heuristic solution: objective 3630.0000000
Found heuristic solution: objective 3514.0000000
Elapsed time for NoRel heuristic: 51s (best bound 0)
Found heuristic solution: objective 3457.0000000
Found heuristic solution: objective 3354.0000000
Elapsed time for NoRel heuristic: 56s (best bound 0)
Found heuristic solution: objective 3342.0000000
Elapsed time for NoRel heuristic: 62s (best bound 0)
Elapsed time for NoRel heuristic: 68s (best bound 0)
Found heuristic solution: objective 3141.0000000
Elapsed time for NoRel heuristic: 75s (best bound 0)
Elapsed time for NoRel heuristic: 81s (best bound 0)
Found heuristic solution: objective 3040.0000000
Elapsed time for NoRel heuristic: 90s (best bound 0)
Found heuristic solution: objective 2869.0000000
Elapsed time for NoRel heuristic: 100s (best bound 0)
Found heuristic solution: objective 2821.0000000
Elapsed time for NoRel heuristic: 105s (best bound 0)
Elapsed time for NoRel heuristic: 113s (best bound 0)
Elapsed time for NoRel heuristic: 126s (best bound 0)
Found heuristic solution: objective 2783.0000000
Found heuristic solution: objective 2705.0000000
Found heuristic solution: objective 2695.0000000
Elapsed time for NoRel heuristic: 147s (best bound 0)
Found heuristic solution: objective 2320.0000000
Elapsed time for NoRel heuristic: 154s (best bound 0)
Found heuristic solution: objective 2317.0000000
Found heuristic solution: objective 2132.0000000
Elapsed time for NoRel heuristic: 161s (best bound 0)
Found heuristic solution: objective 2042.0000000
Elapsed time for NoRel heuristic: 168s (best bound 0)
Found heuristic solution: objective 1933.0000000
Elapsed time for NoRel heuristic: 174s (best bound 0)
Found heuristic solution: objective 1696.0000000
Elapsed time for NoRel heuristic: 179s (best bound 0)
Found heuristic solution: objective 1571.0000000
Found heuristic solution: objective 1541.0000000
Elapsed time for NoRel heuristic: 186s (best bound 0)
Found heuristic solution: objective 1532.0000000
Found heuristic solution: objective 1441.0000000
Found heuristic solution: objective 1298.0000000
Elapsed time for NoRel heuristic: 191s (best bound 0)
Found heuristic solution: objective 872.0000000
Elapsed time for NoRel heuristic: 200s (best bound 0)
Found heuristic solution: objective 843.0000000
Found heuristic solution: objective 608.0000000
Found heuristic solution: objective 461.0000000
Elapsed time for NoRel heuristic: 205s (best bound 0)
Found heuristic solution: objective 217.0000000
Elapsed time for NoRel heuristic: 214s (best bound 0)
Found heuristic solution: objective 214.0000000
Found heuristic solution: objective 185.0000000
Found heuristic solution: objective 158.0000000
Found heuristic solution: objective 131.0000000
Elapsed time for NoRel heuristic: 221s (best bound 0)
Found heuristic solution: objective 121.0000000
Found heuristic solution: objective 97.0000000
Found heuristic solution: objective 84.0000000
Found heuristic solution: objective 78.0000000
Found heuristic solution: objective 72.0000000
Elapsed time for NoRel heuristic: 230s (best bound 0)
Found heuristic solution: objective 58.0000000
Found heuristic solution: objective 45.0000000
Elapsed time for NoRel heuristic: 237s (best bound 0)
Found heuristic solution: objective 42.0000000
Found heuristic solution: objective 40.0000000
Found heuristic solution: objective 37.0000000
Elapsed time for NoRel heuristic: 243s (best bound 0)
Found heuristic solution: objective 32.0000000
Elapsed time for NoRel heuristic: 249s (best bound 0)
Found heuristic solution: objective 31.0000000
Found heuristic solution: objective 27.0000000
Found heuristic solution: objective 25.0000000
Elapsed time for NoRel heuristic: 255s (best bound 0)
Found heuristic solution: objective 23.0000000
Elapsed time for NoRel heuristic: 262s (best bound 0)
Found heuristic solution: objective 22.0000000
Elapsed time for NoRel heuristic: 267s (best bound 0)
Found heuristic solution: objective 21.0000000
Found heuristic solution: objective 16.0000000
Found heuristic solution: objective 7.0000000
Found heuristic solution: objective 5.0000000
Elapsed time for NoRel heuristic: 275s (best bound 0)
Found heuristic solution: objective 4.0000000
Elapsed time for NoRel heuristic: 280s (best bound 0)
Elapsed time for NoRel heuristic: 286s (best bound 0)
Elapsed time for NoRel heuristic: 294s (best bound 0)
Elapsed time for NoRel heuristic: 314s (best bound 0)
Elapsed time for NoRel heuristic: 322s (best bound 0)
Elapsed time for NoRel heuristic: 335s (best bound 0)
Elapsed time for NoRel heuristic: 358s (best bound 0)
Found heuristic solution: objective 2.0000000
Elapsed time for NoRel heuristic: 374s (best bound 0)
Elapsed time for NoRel heuristic: 384s (best bound 0)
Elapsed time for NoRel heuristic: 393s (best bound 0)
Elapsed time for NoRel heuristic: 406s (best bound 0)
Elapsed time for NoRel heuristic: 417s (best bound 0)
Elapsed time for NoRel heuristic: 428s (best bound 0)
Elapsed time for NoRel heuristic: 446s (best bound 0)
Elapsed time for NoRel heuristic: 456s (best bound 0)
Elapsed time for NoRel heuristic: 466s (best bound 0)
Elapsed time for NoRel heuristic: 480s (best bound 0)
Elapsed time for NoRel heuristic: 494s (best bound 0)
Elapsed time for NoRel heuristic: 511s (best bound 0)
Elapsed time for NoRel heuristic: 524s (best bound 0)
Elapsed time for NoRel heuristic: 539s (best bound 0)
Elapsed time for NoRel heuristic: 555s (best bound 0)
Elapsed time for NoRel heuristic: 568s (best bound 0)
Elapsed time for NoRel heuristic: 583s (best bound 0)
Elapsed time for NoRel heuristic: 591s (best bound 0)
Elapsed time for NoRel heuristic: 598s (best bound 0)
NoRel heuristic complete

Explored 0 nodes (0 simplex iterations) in 600.19 seconds (488.09 work units)
Thread count was 8 (of 8 available processors)

Solution count 10: 2 4 5 ... 27

Time limit reached
Best objective 2.000000000000e+00, best bound 0.000000000000e+00, gap 100.0000%

Wrote result file 'bnn_mnist_rot_16_label5_adversarial_norm_1.sol'

